FILE: 334ChessS.txt
10 144 0 
1 3000 3 4 27030 27030 27030 27030 27030 27030 27030 27030 27030 3 1 1 27030 27030 27030 27030 27030 27030 27030 27030 27030 3 27030 27030 27030 27030 27030 27030 27030 27030 27030 27030 27030 27030 27030 27030 27030 27030 27030 27030 27030 27030 27030 27030 27030 27030 27030 27030 27030 27030 27030 27030 27030 27030 27030 27030 27030 27030 27030 27030 27030 27030 27030 27030 27030 27030 27030 27030 27030 27030 27030 27030 27030 27030 27030 27030 27030 27030 27030 27030 27030 27030 27030 27030 27030 27030 27030 27030 27030 27030 27030 27030 27030 27030 27030 27030 27030 27030 27030 27030 27030 27030 27030 27030 27030 27030 27030 27030 27030 27030 27030 27030 27030 27030 27030 27030 27030 27030 27030 27030 27030 27030 27030 27030 27030 27030 27030 27030 27030 27030 4 0 27030 27030 27030 27030 27030 27030 27030 27030 27030 1 
2 3000 3 4 3 27030 27030 27030 27030 27030 27030 27030 27030 27030 4 2 1 27030 27030 27030 27030 27030 27030 27030 27030 27030 27030 27030 27030 27030 27030 27030 27030 27030 27030 27030 27030 27030 27030 27030 27030 27030 27030 27030 27030 27030 27030 27030 27030 27030 27030 27030 27030 27030 27030 27030 27030 27030 27030 27030 27030 27030 27030 27030 27030 27030 27030 27030 27030 27030 27030 27030 27030 27030 27030 27030 27030 27030 27030 27030 27030 27030 27030 27030 27030 27030 27030 27030 27030 27030 27030 27030 27030 27030 27030 27030 27030 27030 27030 27030 27030 27030 27030 27030 27030 27030 27030 27030 27030 27030 27030 27030 27030 27030 27030 27030 27030 27030 27030 27030 27030 27030 27030 27030 27030 27030 27030 27030 27030 27030 27030 27030 27030 27030 4 0 2 27030 27030 27030 27030 27030 27030 27030 27030 27030 
3 3000 27030 3 4 2 27030 27030 27030 27030 27030 27030 27030 27030 27030 3 1 4 27030 27030 27030 27030 27030 27030 27030 27030 27030 27030 27030 27030 27030 27030 27030 27030 27030 27030 27030 27030 27030 27030 27030 27030 27030 27030 27030 27030 27030 27030 27030 27030 27030 27030 27030 27030 27030 27030 27030 27030 27030 27030 27030 27030 27030 27030 27030 27030 27030 27030 27030 27030 27030 27030 27030 27030 27030 27030 27030 27030 27030 27030 27030 27030 27030 27030 27030 27030 27030 27030 27030 27030 27030 27030 27030 27030 27030 27030 27030 27030 27030 27030 27030 27030 27030 27030 27030 27030 27030 27030 27030 27030 27030 27030 27030 27030 27030 27030 27030 27030 27030 27030 27030 27030 27030 27030 27030 27030 27030 27030 27030 27030 27030 27030 27030 27030 27030 2 2 1 27030 27030 27030 27030 27030 27030 27030 27030 
4 3000 27030 27030 2 4 3 27030 27030 27030 27030 27030 27030 27030 27030 27030 4 4 3 27030 27030 27030 27030 27030 27030 27030 27030 27030 27030 27030 27030 27030 27030 27030 27030 27030 27030 27030 27030 27030 27030 27030 27030 27030 27030 27030 27030 27030 27030 27030 27030 27030 27030 27030 27030 27030 27030 27030 27030 27030 27030 27030 27030 27030 27030 27030 27030 27030 27030 27030 27030 27030 27030 27030 27030 27030 27030 27030 27030 27030 27030 27030 27030 27030 27030 27030 27030 27030 27030 27030 27030 27030 27030 27030 27030 27030 27030 27030 27030 27030 27030 27030 27030 27030 27030 27030 27030 27030 27030 27030 27030 27030 27030 27030 27030 27030 27030 27030 27030 27030 27030 27030 27030 27030 27030 27030 27030 27030 27030 27030 27030 27030 27030 27030 27030 27030 0 4 2 27030 27030 27030 27030 27030 27030 27030 
5 3000 27030 27030 27030 0 2 0 27030 27030 27030 27030 27030 27030 27030 27030 27030 2 1 3 27030 27030 27030 27030 27030 27030 27030 27030 27030 27030 27030 27030 27030 27030 27030 27030 27030 27030 27030 27030 27030 27030 27030 27030 27030 27030 27030 27030 27030 27030 27030 27030 27030 27030 27030 27030 27030 27030 27030 27030 27030 27030 27030 27030 27030 27030 27030 27030 27030 27030 27030 27030 27030 27030 27030 27030 27030 27030 27030 27030 27030 27030 27030 27030 27030 27030 27030 27030 27030 27030 27030 27030 27030 27030 27030 27030 27030 27030 27030 27030 27030 27030 27030 27030 27030 27030 27030 27030 27030 27030 27030 27030 27030 27030 27030 27030 27030 27030 27030 27030 27030 27030 27030 27030 27030 27030 27030 27030 27030 27030 27030 27030 27030 27030 27030 27030 27030 0 0 2 27030 27030 27030 27030 27030 27030 
6 3000 27030 27030 27030 27030 1 2 2 27030 27030 27030 27030 27030 27030 27030 27030 27030 0 2 2 27030 27030 27030 27030 27030 27030 27030 27030 27030 27030 27030 27030 27030 27030 27030 27030 27030 27030 27030 27030 27030 27030 27030 27030 27030 27030 27030 27030 27030 27030 27030 27030 27030 27030 27030 27030 27030 27030 27030 27030 27030 27030 27030 27030 27030 27030 27030 27030 27030 27030 27030 27030 27030 27030 27030 27030 27030 27030 27030 27030 27030 27030 27030 27030 27030 27030 27030 27030 27030 27030 27030 27030 27030 27030 27030 27030 27030 27030 27030 27030 27030 27030 27030 27030 27030 27030 27030 27030 27030 27030 27030 27030 27030 27030 27030 27030 27030 27030 27030 27030 27030 27030 27030 27030 27030 27030 27030 27030 27030 27030 27030 27030 27030 27030 27030 27030 27030 0 2 1 27030 27030 27030 27030 27030 
7 3000 27030 27030 27030 27030 27030 3 4 0 27030 27030 27030 27030 27030 27030 27030 27030 27030 2 0 0 27030 27030 27030 27030 27030 27030 27030 27030 27030 27030 27030 27030 27030 27030 27030 27030 27030 27030 27030 27030 27030 27030 27030 27030 27030 27030 27030 27030 27030 27030 27030 27030 27030 27030 27030 27030 27030 27030 27030 27030 27030 27030 27030 27030 27030 27030 27030 27030 27030 27030 27030 27030 27030 27030 27030 27030 27030 27030 27030 27030 27030 27030 27030 27030 27030 27030 27030 27030 27030 27030 27030 27030 27030 27030 27030 27030 27030 27030 27030 27030 27030 27030 27030 27030 27030 27030 27030 27030 27030 27030 27030 27030 27030 27030 27030 27030 27030 27030 27030 27030 27030 27030 27030 27030 27030 27030 27030 27030 27030 27030 27030 27030 27030 27030 27030 27030 27030 3 3 1 27030 27030 27030 27030 
8 3000 27030 27030 27030 27030 27030 27030 1 2 0 27030 27030 27030 27030 27030 27030 27030 27030 27030 4 1 2 27030 27030 27030 27030 27030 27030 27030 27030 27030 27030 27030 27030 27030 27030 27030 27030 27030 27030 27030 27030 27030 27030 27030 27030 27030 27030 27030 27030 27030 27030 27030 27030 27030 27030 27030 27030 27030 27030 27030 27030 27030 27030 27030 27030 27030 27030 27030 27030 27030 27030 27030 27030 27030 27030 27030 27030 27030 27030 27030 27030 27030 27030 27030 27030 27030 27030 27030 27030 27030 27030 27030 27030 27030 27030 27030 27030 27030 27030 27030 27030 27030 27030 27030 27030 27030 27030 27030 27030 27030 27030 27030 27030 27030 27030 27030 27030 27030 27030 27030 27030 27030 27030 27030 27030 27030 27030 27030 27030 27030 27030 27030 27030 27030 27030 27030 27030 27030 1 4 1 27030 27030 27030 
9 3000 27030 27030 27030 27030 27030 27030 27030 0 3 2 27030 27030 27030 27030 27030 27030 27030 27030 27030 4 1 3 27030 27030 27030 27030 27030 27030 27030 27030 27030 27030 27030 27030 27030 27030 27030 27030 27030 27030 27030 27030 27030 27030 27030 27030 27030 27030 27030 27030 27030 27030 27030 27030 27030 27030 27030 27030 27030 27030 27030 27030 27030 27030 27030 27030 27030 27030 27030 27030 27030 27030 27030 27030 27030 27030 27030 27030 27030 27030 27030 27030 27030 27030 27030 27030 27030 27030 27030 27030 27030 27030 27030 27030 27030 27030 27030 27030 27030 27030 27030 27030 27030 27030 27030 27030 27030 27030 27030 27030 27030 27030 27030 27030 27030 27030 27030 27030 27030 27030 27030 27030 27030 27030 27030 27030 27030 27030 27030 27030 27030 27030 27030 27030 27030 27030 27030 27030 27030 0 1 0 27030 27030 
10 3000 27030 27030 27030 27030 27030 27030 27030 27030 2 3 1 27030 27030 27030 27030 27030 27030 27030 27030 27030 0 0 4 27030 27030 27030 27030 27030 27030 27030 27030 27030 27030 27030 27030 27030 27030 27030 27030 27030 27030 27030 27030 27030 27030 27030 27030 27030 27030 27030 27030 27030 27030 27030 27030 27030 27030 27030 27030 27030 27030 27030 27030 27030 27030 27030 27030 27030 27030 27030 27030 27030 27030 27030 27030 27030 27030 27030 27030 27030 27030 27030 27030 27030 27030 27030 27030 27030 27030 27030 27030 27030 27030 27030 27030 27030 27030 27030 27030 27030 27030 27030 27030 27030 27030 27030 27030 27030 27030 27030 27030 27030 27030 27030 27030 27030 27030 27030 27030 27030 27030 27030 27030 27030 27030 27030 27030 27030 27030 27030 27030 27030 27030 27030 27030 27030 27030 27030 27030 27030 4 2 0 27030 
